
# System
units            real
atom_style       full
dimension        3
newton           on
boundary         p p p

# Styles
pair_style       lj/cut/coul/long 12.0
pair_modify      shift no mix geometric
kspace_style     pppm 1.0e-4
bond_style harmonic
angle_style harmonic
dihedral_style opls
improper_style cvff
special_bonds lj/coul 0.0 0.0 0.5 

# Data file input
read_data        data.lmps

# Settings
dielectric       1.0
neighbor         2.0 bin
neigh_modify     delay 0 every 1 check yes
timestep         1.0
run_style        verlet

# Output
thermo_style     custom step vol temp press etotal pe ke evdwl ecoul ebond eangle edihed eimp
thermo           100

# Minimization Step
min_style        sd
minimize         1.0e-3 1.0e-3 1000 100000
min_style        cg
min_modify       line quadratic
minimize         1.0e-4 1.0e-4 1000 100000

# Data file output
write_data      min.lmps
